100 80 5
0 1 0
1 2 0
2 3 0
3 4 0
5 6 1
6 7 1
7 8 1
8 9 1
10 11 2
11 12 2
12 13 2
13 14 2
15 16 3
16 17 3
17 18 3
18 19 3
20 21 4
21 22 4
22 23 4
23 24 4
25 26 5
26 27 5
27 28 5
28 29 5
30 31 6
31 32 6
32 33 6
33 34 6
35 36 7
36 37 7
37 38 7
38 39 7
40 41 8
41 42 8
42 43 8
43 44 8
45 46 9
46 47 9
47 48 9
48 49 9
50 51 10
51 52 10
52 53 10
53 54 10
55 56 11
56 57 11
57 58 11
58 59 11
60 61 12
61 62 12
62 63 12
63 64 12
65 66 13
66 67 13
67 68 13
68 69 13
70 71 14
71 72 14
72 73 14
73 74 14
75 76 15
76 77 15
77 78 15
78 79 15
80 81 16
81 82 16
82 83 16
83 84 16
85 86 17
86 87 17
87 88 17
88 89 17
90 91 18
91 92 18
92 93 18
93 94 18
95 96 19
96 97 19
97 98 19
98 99 19
1 0 29
1 1 9
1 2 49
1 3 62
2 4 44 2 44
1 0 43
1 1 75
1 3 69
1 2 46
1 4 72
1 1 91
1 0 39
2 2 90 0 90
1 4 12
1 3 45
1 1 81
2 0 71 3 71
1 4 9
1 2 85
1 3 22
1 2 14
2 1 22 2 22
1 0 26
1 3 21
1 4 72
1 2 84
1 1 52
2 4 48 3 48
1 0 47
1 3 6
2 1 46 2 46
1 0 61
1 2 32
1 3 32
1 4 30
1 2 31
1 1 46
1 0 32
1 3 19
1 4 36
1 0 76
2 3 76 0 76
1 2 85
1 1 40
2 4 26 2 26
1 1 85
1 2 61
2 0 64 3 64
1 3 47
2 4 90 2 90
1 1 78
1 3 36
1 0 11
1 4 56
1 2 21
1 2 90
1 0 11
1 1 28
1 3 46
1 4 30
1 0 85
1 2 74
1 1 10
1 3 89
1 4 33
1 2 95
1 0 99
1 1 52
1 3 98
1 4 43
2 0 6 2 6
1 1 61
1 4 69
1 2 49
1 3 53
1 1 2
1 0 95
1 3 72
1 4 65
1 2 25
2 0 37 4 37
1 2 13
1 1 21
1 3 89
1 4 55
1 0 86
1 1 74
1 4 88
1 2 48
1 3 79
1 1 69
2 2 51 4 51
1 0 11
1 3 89
1 4 74
1 0 13
1 1 7
1 2 76
1 3 52
1 4 45